(set-info :source |printed by MathSAT|)
(declare-fun |!{$(in_main#0)<N>}| () Int)
(declare-fun |!{$(in_main#0)<N>}.next| () Int)
(declare-fun |!{$(in_main#0)<&array1>}| () Int)
(declare-fun |!{$(in_main#0)<&array1>}.next| () Int)
(declare-fun |!{$(in_main#0)<&array2>}| () Int)
(declare-fun |!{$(in_main#0)<&array2>}.next| () Int)
(declare-fun |!{$(in_main#0)<k>}| () Int)
(declare-fun |!{$(in_main#0)<k>}.next| () Int)
(declare-fun |!{$(in_main#0)<k#1>}| () Int)
(declare-fun |!{$(in_main#0)<k#1>}.next| () Int)
(declare-fun |!{%memaddr}| () Int)
(declare-fun |!{%memaddr}.next| () Int)
(declare-fun |!{%mem.0}| () (Array Int Int))
(declare-fun |!{%mem.0}.next| () (Array Int Int))
(declare-fun |!{$(in_main#0)<$(in___VERIFIER_nondet_int#2)<h#<__VERIFIER_nondet_int.return>>>}| () Int)
(declare-fun |!{$(in_main#0)<$(in___VERIFIER_nondet_int#4)<h#<__VERIFIER_nondet_int.return>>>}| () Int)
(declare-fun |!{$(in_main#0)<$(in___VERIFIER_nondet_int#5)<h#<__VERIFIER_nondet_int.return>>>}| () Int)
(declare-fun !pc () Int)
(declare-fun !pc.next () Int)
(declare-fun |%{$(in_main#0)<k#1>}#1| () Int)
(declare-fun |%{%mem.0}#5| () (Array Int Int))
(define-fun .def_59 () Int (! !pc :next !pc.next))
(define-fun .def_62 () Bool (! (= .def_59 2) :init true))
(define-fun .def_246 () Bool (= .def_59 57))
(define-fun .def_150 () Bool (= !pc.next 129))
(define-fun .def_249 () Bool (and .def_150 .def_246))
(define-fun .def_231 () Bool (= |!{%mem.0}.next| |%{%mem.0}#5|))
(define-fun .def_228 () Bool (= |!{$(in_main#0)<k#1>}.next| 0))
(define-fun .def_10 () Int (! |!{$(in_main#0)<&array1>}| :next |!{$(in_main#0)<&array1>}.next|))
(define-fun .def_113 () Bool (= .def_10 |!{$(in_main#0)<&array1>}.next|))
(define-fun .def_8 () Int (! |!{$(in_main#0)<N>}| :next |!{$(in_main#0)<N>}.next|))
(define-fun .def_111 () Bool (= .def_8 |!{$(in_main#0)<N>}.next|))
(define-fun .def_125 () Bool (and .def_111 .def_113))
(define-fun .def_12 () Int (! |!{$(in_main#0)<&array2>}| :next |!{$(in_main#0)<&array2>}.next|))
(define-fun .def_115 () Bool (= .def_12 |!{$(in_main#0)<&array2>}.next|))
(define-fun .def_126 () Bool (and .def_115 .def_125))
(define-fun .def_14 () Int (! |!{$(in_main#0)<k>}| :next |!{$(in_main#0)<k>}.next|))
(define-fun .def_117 () Bool (= .def_14 |!{$(in_main#0)<k>}.next|))
(define-fun .def_127 () Bool (and .def_117 .def_126))
(define-fun .def_229 () Bool (and .def_127 .def_228))
(define-fun .def_18 () Int (! |!{%memaddr}| :next |!{%memaddr}.next|))
(define-fun .def_121 () Bool (= .def_18 |!{%memaddr}.next|))
(define-fun .def_230 () Bool (and .def_121 .def_229))
(define-fun .def_232 () Bool (and .def_230 .def_231))
(define-fun .def_20 () (Array Int Int) (! |!{%mem.0}| :next |!{%mem.0}.next|))
(define-fun .def_215 () Bool (= .def_20 |%{%mem.0}#5|))
(define-fun .def_170 () Bool (<= 0 .def_8))
(define-fun .def_168 () Bool (<= .def_8 0))
(define-fun .def_169 () Bool (not .def_168))
(define-fun .def_171 () Bool (and .def_169 .def_170))
(define-fun .def_213 () Bool (not .def_171))
(define-fun .def_216 () Bool (and .def_213 .def_215))
(define-fun .def_177 () Int (+ .def_8 .def_12))
(define-fun .def_195 () Int (+ .def_177 (- 2)))
(define-fun .def_188 () Int (+ .def_12 1))
(define-fun .def_178 () Int (+ .def_177 (- 1)))
(define-fun .def_172 () Int (select .def_20 .def_12))
(define-fun .def_173 () (Array Int Int) (store .def_20 .def_10 .def_172))
(define-fun .def_179 () Int (select .def_173 .def_178))
(define-fun .def_180 () Int (+ .def_8 .def_10))
(define-fun .def_181 () Int (+ .def_180 (- 1)))
(define-fun .def_182 () (Array Int Int) (store .def_173 .def_181 .def_179))
(define-fun .def_189 () Int (select .def_182 .def_188))
(define-fun .def_187 () Int (+ .def_10 1))
(define-fun .def_190 () (Array Int Int) (store .def_182 .def_187 .def_189))
(define-fun .def_196 () Int (select .def_190 .def_195))
(define-fun .def_197 () Int (+ .def_180 (- 2)))
(define-fun .def_198 () (Array Int Int) (store .def_190 .def_197 .def_196))
(define-fun .def_207 () Bool (= .def_198 |%{%mem.0}#5|))
(define-fun .def_185 () Bool (<= 2 .def_8))
(define-fun .def_183 () Bool (<= .def_8 1))
(define-fun .def_184 () Bool (not .def_183))
(define-fun .def_186 () Bool (and .def_184 .def_185))
(define-fun .def_209 () Bool (and .def_186 .def_207))
(define-fun .def_206 () Bool (= .def_182 |%{%mem.0}#5|))
(define-fun .def_199 () Bool (not .def_186))
(define-fun .def_208 () Bool (and .def_199 .def_206))
(define-fun .def_210 () Bool (or .def_208 .def_209))
(define-fun .def_211 () Bool (and .def_171 .def_210))
(define-fun .def_217 () Bool (or .def_211 .def_216))
(define-fun .def_233 () Bool (and .def_217 .def_232))
(define-fun .def_161 () Bool (<= .def_8 .def_14))
(define-fun .def_234 () Bool (and .def_161 .def_233))
(define-fun .def_250 () Bool (and .def_234 .def_249))
(define-fun .def_95 () Bool (= !pc.next 57))
(define-fun .def_247 () Bool (and .def_95 .def_246))
(define-fun .def_165 () Int (+ .def_12 .def_14))
(define-fun .def_163 () Int (+ .def_10 .def_14))
(define-fun .def_164 () (Array Int Int) (store .def_20 .def_163 |!{$(in_main#0)<$(in___VERIFIER_nondet_int#4)<h#<__VERIFIER_nondet_int.return>>>}|))
(define-fun .def_166 () (Array Int Int) (store .def_164 .def_165 |!{$(in_main#0)<$(in___VERIFIER_nondet_int#5)<h#<__VERIFIER_nondet_int.return>>>}|))
(define-fun .def_225 () Bool (= |!{%mem.0}.next| .def_166))
(define-fun .def_219 () Int (* (- 1) |!{$(in_main#0)<k>}.next|))
(define-fun .def_220 () Int (+ .def_14 .def_219))
(define-fun .def_221 () Bool (= .def_220 (- 1)))
(define-fun .def_222 () Bool (and .def_126 .def_221))
(define-fun .def_16 () Int (! |!{$(in_main#0)<k#1>}| :next |!{$(in_main#0)<k#1>}.next|))
(define-fun .def_119 () Bool (= .def_16 |!{$(in_main#0)<k#1>}.next|))
(define-fun .def_223 () Bool (and .def_119 .def_222))
(define-fun .def_224 () Bool (and .def_121 .def_223))
(define-fun .def_226 () Bool (and .def_224 .def_225))
(define-fun .def_162 () Bool (not .def_161))
(define-fun .def_227 () Bool (and .def_162 .def_226))
(define-fun .def_248 () Bool (and .def_227 .def_247))
(define-fun .def_251 () Bool (or .def_248 .def_250))
(define-fun .def_154 () Bool (= !pc.next 0))
(define-fun .def_145 () Bool (= .def_59 129))
(define-fun .def_155 () Bool (and .def_145 .def_154))
(define-fun .def_98 () Bool (<= .def_8 .def_16))
(define-fun .def_137 () Bool (and .def_98 .def_111))
(define-fun .def_138 () Bool (and .def_113 .def_137))
(define-fun .def_139 () Bool (and .def_115 .def_138))
(define-fun .def_140 () Bool (and .def_117 .def_139))
(define-fun .def_141 () Bool (and .def_119 .def_140))
(define-fun .def_142 () Bool (and .def_121 .def_141))
(define-fun .def_91 () Bool (= .def_20 |!{%mem.0}.next|))
(define-fun .def_143 () Bool (and .def_91 .def_142))
(define-fun .def_156 () Bool (and .def_143 .def_155))
(define-fun .def_151 () Bool (and .def_145 .def_150))
(define-fun .def_129 () Int (* (- 1) |!{$(in_main#0)<k#1>}.next|))
(define-fun .def_130 () Int (+ .def_16 .def_129))
(define-fun .def_131 () Bool (= .def_130 (- 1)))
(define-fun .def_132 () Bool (and .def_127 .def_131))
(define-fun .def_133 () Bool (and .def_121 .def_132))
(define-fun .def_134 () Bool (and .def_91 .def_133))
(define-fun .def_102 () Int (+ .def_12 .def_16))
(define-fun .def_103 () Int (select .def_20 .def_102))
(define-fun .def_100 () Int (+ .def_10 .def_16))
(define-fun .def_101 () Int (select .def_20 .def_100))
(define-fun .def_104 () Bool (= .def_101 .def_103))
(define-fun .def_105 () Int (ite .def_104 1 0))
(define-fun .def_106 () Bool (= .def_105 0))
(define-fun .def_107 () Bool (not .def_106))
(define-fun .def_135 () Bool (and .def_107 .def_134))
(define-fun .def_99 () Bool (not .def_98))
(define-fun .def_136 () Bool (and .def_99 .def_135))
(define-fun .def_152 () Bool (and .def_136 .def_151))
(define-fun .def_147 () Bool (= !pc.next 149))
(define-fun .def_148 () Bool (and .def_145 .def_147))
(define-fun .def_112 () Bool (and .def_106 .def_111))
(define-fun .def_114 () Bool (and .def_112 .def_113))
(define-fun .def_116 () Bool (and .def_114 .def_115))
(define-fun .def_118 () Bool (and .def_116 .def_117))
(define-fun .def_120 () Bool (and .def_118 .def_119))
(define-fun .def_122 () Bool (and .def_120 .def_121))
(define-fun .def_123 () Bool (and .def_91 .def_122))
(define-fun .def_124 () Bool (and .def_99 .def_123))
(define-fun .def_149 () Bool (and .def_124 .def_148))
(define-fun .def_153 () Bool (or .def_149 .def_152))
(define-fun .def_157 () Bool (or .def_153 .def_156))
(define-fun .def_96 () Bool (and .def_62 .def_95))
(define-fun .def_89 () Bool (= |!{%memaddr}.next| 3))
(define-fun .def_87 () Bool (= |!{$(in_main#0)<k#1>}.next| |%{$(in_main#0)<k#1>}#1|))
(define-fun .def_85 () Bool (= |!{$(in_main#0)<k>}.next| 0))
(define-fun .def_83 () Bool (= |!{$(in_main#0)<&array2>}.next| 2))
(define-fun .def_81 () Bool (= |!{$(in_main#0)<&array1>}.next| 1))
(define-fun .def_80 () Bool (= |!{$(in_main#0)<N>}.next| |!{$(in_main#0)<$(in___VERIFIER_nondet_int#2)<h#<__VERIFIER_nondet_int.return>>>}|))
(define-fun .def_82 () Bool (and .def_80 .def_81))
(define-fun .def_84 () Bool (and .def_82 .def_83))
(define-fun .def_86 () Bool (and .def_84 .def_85))
(define-fun .def_88 () Bool (and .def_86 .def_87))
(define-fun .def_90 () Bool (and .def_88 .def_89))
(define-fun .def_92 () Bool (and .def_90 .def_91))
(define-fun .def_75 () Bool (<= |!{$(in_main#0)<$(in___VERIFIER_nondet_int#2)<h#<__VERIFIER_nondet_int.return>>>}| 0))
(define-fun .def_76 () Bool (not .def_75))
(define-fun .def_77 () Int (ite .def_76 1 0))
(define-fun .def_78 () Bool (= .def_77 0))
(define-fun .def_79 () Bool (not .def_78))
(define-fun .def_93 () Bool (and .def_79 .def_92))
(define-fun .def_97 () Bool (and .def_93 .def_96))
(define-fun .def_158 () Bool (or .def_97 .def_157))
(define-fun .def_252 () Bool (! (or .def_158 .def_251) :trans true))
(define-fun .def_159 () Bool (= .def_59 149))
(define-fun .def_253 () Bool (! (not .def_159) :invar-property 0 :invar-property-name ||))
(assert true)
